param set_len = 60;
param target_sum = 553348;
param values := [0] 3954 [1] 32450 [2] 6140 [3] 26741 [4] 23190 [5] 6018 [6] 29097 [7] 27096 [8] 28503 [9] 5193 [10] 24420 [11] 31159 [12] 23261 [13] 2759 [14] 24100 [15] 12149 [16] 12470 [17] 6199 [18] 13414 [19] 27974 [20] 12171 [21] 32173 [22] 5632 [23] 8097 [24] 15434 [25] 2895 [26] 25556 [27] 1809 [28] 3848 [29] 1338 [30] 19649 [31] 15388 [32] 14592 [33] 7820 [34] 12825 [35] 20927 [36] 13615 [37] 152 [38] 24538 [39] 24572 [40] 26782 [41] 11530 [42] 12997 [43] 4226 [44] 29567 [45] 28231 [46] 27495 [47] 27323 [48] 19867 [49] 22582 [50] 13135 [51] 27549 [52] 24522 [53] 26905 [54] 30347 [55] 29085 [56] 25248 [57] 27025 [58] 24719 [59] 18830 ;
